pure_adt/tip2015_weird_nat_add3acc_assoc3.smt2
(set-logic HORN)
(declare-datatypes ((Nat_233 0)) (((zero_29 ) (succ_29 (p_84 Nat_233)))))
(declare-fun diseqNat_233 (Nat_233 Nat_233) Bool)
(declare-fun p_85 (Nat_233 Nat_233) Bool)
(declare-fun iszero_29 (Nat_233) Bool)
(declare-fun issucc_29 (Nat_233) Bool)
(assert (forall ((x_18592 Nat_233))
	(p_85 x_18592 (succ_29 x_18592))))
(assert (iszero_29 zero_29))
(assert (forall ((x_18594 Nat_233))
	(issucc_29 (succ_29 x_18594))))
(assert (forall ((x_18595 Nat_233))
	(diseqNat_233 zero_29 (succ_29 x_18595))))
(assert (forall ((x_18596 Nat_233))
	(diseqNat_233 (succ_29 x_18596) zero_29)))
(assert (forall ((x_18597 Nat_233) (x_18598 Nat_233))
	(=> (diseqNat_233 x_18597 x_18598)
	    (diseqNat_233 (succ_29 x_18597) (succ_29 x_18598)))))
(declare-fun addacc_5 (Nat_233 Nat_233 Nat_233 Nat_233) Bool)
(assert (forall ((x_18581 Nat_233) (x_18574 Nat_233) (y_719 Nat_233) (z_733 Nat_233))
	(=> (addacc_5 x_18581 x_18574 (succ_29 y_719) z_733)
	    (addacc_5 x_18581 (succ_29 x_18574) y_719 z_733))))
(assert (forall ((x_18583 Nat_233) (x_18575 Nat_233) (z_733 Nat_233))
	(=> (addacc_5 x_18583 zero_29 x_18575 (succ_29 z_733))
	    (addacc_5 x_18583 zero_29 (succ_29 x_18575) z_733))))
(assert (forall ((x_18585 Nat_233))
	(addacc_5 x_18585 zero_29 zero_29 x_18585)))
(assert (forall ((x_18586 Nat_233) (x_18587 Nat_233) (x_18588 Nat_233) (x_18589 Nat_233) (x_18576 Nat_233) (x_18577 Nat_233) (x_18578 Nat_233) (x_18579 Nat_233) (x_18580 Nat_233))
	(=>	(and true
			(diseqNat_233 x_18587 x_18589)
			(addacc_5 x_18586 x_18577 x_18578 x_18579)
			(addacc_5 x_18587 x_18576 x_18586 x_18580)
			(addacc_5 x_18588 x_18578 x_18579 x_18580)
			(addacc_5 x_18589 x_18576 x_18577 x_18588))
		false)))
(check-sat)
